Maximize
score: + 24179.958 c0 + 76333.459 c1 + 1240.062 c2 + 252.116 c3 + 152.841 c4 + 478.163 c5 + 1797.99 c6 + 601.119 c7 + 98.362 c8 + 299.968 c9 + 95.305 c10 + 427.672 c11 + 624.392 c12 + 90.374 c13 + 531.7 c14 + 36.526 c15 + 167.035 c16 + 196.535 c17 + 151.972 c18 + 89.618 c19 + 182.755 c20 + 68.678 c21 + 75.414 c22 + 237.261 c23 + 26.326 c24 + 12.54 c25 + 13.528 c26 + 48.625 c27 + 36.898 c28 + 61.512 c29 + 32.409 c30 + 236.851 c31 + 831.769 c32 + 15.533 c33 + 271.449 c34 + 20.793 c35 + 124.001 c36 + 102.632 c37 + 372.194 c38 + 137.985 c39 + 134.566 c40 + 243.739 c41 + 233.858 c42 + 23.739 c43 + 24.629 c44 + 38.613 c45 + 10.901 c46 + 14.266 c47 + 47.947 c48 + 48.079 c49 + 889.888 c50 + 464.359 c51 + 333.281 c52 + 363.17 c53 + 319.083 c54 + 271.382 c55 + 187.856 c56 + 245.745 c57 + 1480.831 c58 + 165.596 c59 + 504.405 c60 + 1971.47 c61 + 804.076 c62 + 85.05 c63 + 23.874 c64 + 6.231 c65 + 880.282 c66 + 526.58 c67 + 24.193 c68 + 12.626 c69 + 82.025 c70 + 27.686 c71 + 4.648 c72 + 30.856 c73 + 11.175 c74 + 27.435 c75 + 23.597 c76 + 8.287 c77 + 966.201 c78 + 181.978 c79 + 692.572 c80 + 729.169 c81 + 21.71 c82 + 28.658 c83 + 82.307 c84 + 11.639 c85 + 43.941 c86 + 383.097 c87 + 381.461 c88 + 28.942 c89 + 18.186 c90 + 64.734 c91 + 13.125 c92 + 29.555 c93 + 112.927 c94 + 506.179 c95 + 262.098 c96 + 100.079 c97 + 23.622 c98 + 55.193 c99 + 114.146 c100 + 33.026 c101 + 15.153 c102 + 20.045 c103 + 24.099 c104 + 14.12 c105 + 14.901 c106 + 31.306 c107 + 38.432 c108 + 4.356 c109 + 10.545 c110 + 7.176 c111 + 36.08 c112 + 48.463 c113 + 12.67 c114 + 14.487 c115 + 8.81 c116 + 38.592 c117 + 53.552 c118 + 15.176 c119 + 8.906 c120 + 48.6 c121 + 15.114 c122 + 18.084 c123 + 26.049 c124 + 25.511 c125 + 15.838 c126 + 43.895 c127 + 29.352 c128 + 7.266 c129 + 12.915 c130 + 43.964 c131 + 46.329 c132 + 6.725 c133 + 60.785 c134 + 14.408 c135 + 9.401 c136 + 52.11 c137 + 12.591 c138 + 22.494 c139 + 12.651 c140 + 25.733 c141 + 29.901 c142 + 10.513 c143 + 4.578 c144 + 16.865 c145 + 2.12 c146 + 45.631 c147 + 7.452 c148 + 7.862 c149 + 23.674 c150 + 15.33 c151 + 23.377 c152 + 4.162 c153 + 35.102 c154 + 79.573 c155 + 13.093 c156 + 22.031 c157 + 38.526 c158 + 12.258 c159 + 35.149 c160 + 41.78 c161 + 10.926 c162 + 5.882 c163 + 7.565 c164 + 57.481 c165 + 7.682 c166 + 15.012 c167 + 39.047 c168 + 43.992 c169 + 26.539 c170 + 112.045 c171 + 34.485 c172 + 27.768 c173 + 21.422 c174 + 17.286 c175 + 8.103 c176 + 40.27 c177 + 37.56 c178 + 22.846 c179 + 25.746 c180 + 21.893 c181 + 36.624 c182 + 55.956 c183 + 11.314 c184 + 26.935 c185 + 19.547 c186 + 16.944 c187 + 97.334 c188 + 19.895 c189 + 13.976 c190 + 117.13 c191 + 27.423 c192 + 7.041 c193 + 16.773 c194 + 17.21 c195 + 73.283 c196 + 4.769 c197 + 6.09 c198 + 30.543 c199 + 32.661 c200 + 56.416 c201 + 14.445 c202 + 135.27 c203 + 14.592 c204 + 247.606 c205 + 127.153 c206 + 82.487 c207 + 39.344 c208 + 21.116 c209 + 11.925 c210 + 14.975 c211 + 22.273 c212 + 32.307 c213 + 12.388 c214 + 27.316 c215 + 289.113 c216 + 79.333 c217 + 109.707 c218 + 57.246 c219 + 15.633 c220 + 387.525 c221 + 199.266 c222 + 37.812 c223 + 12.108 c224 + 30.487 c225 + 12.072 c226 + 18.361 c227 + 7.991 c228 + 47.15 c229 + 11.227 c230 + 10.251 c231 + 6.65 c232 + 15.056 c233 + 20.627 c234 + 62.147 c235 + 5.566 c236 + 84.069 c237 + 10.887 c238

Subject To
index_0: s91 + s93 + s96 + s100 + s103 + s104 + s107 - c0 >= 0
index_1: s20 + s21 + s23 + s92 + s94 + s96 + s100 + s103 + s107 - c1 >= 0
index_2: s30 + s42 + s50 + s63 + s74 + s81 + s91 + s93 + s94 + s96 + s97 + s99 + s100 + s103 + s104 + s107 + s108 - c2 >= 0
index_3: s34 + s91 + s92 + s94 + s96 + s97 + s99 + s100 + s102 + s104 + s107 - c3 >= 0
index_4: s34 + s35 + s89 + s90 + s95 + s98 + s99 + s101 + s107 + s108 - c4 >= 0
index_5: s25 + s46 + s49 + s56 + s78 + s81 + s87 + s97 + s100 + s107 - c5 >= 0
index_6: s92 + s94 + s97 + s100 + s104 + s107 - c6 >= 0
index_7: s0 + s1 + s3 - c7 >= 0
index_8: s5 + s6 + s7 + s9 + s11 + s12 + s16 + s17 + s19 + s22 + s23 + s26 + s29 + s30 + s33 + s34 + s35 + s38 + s43 + s45 + s51 + s52 + s54 + s56 + s57 + s58 + s59 + s60 + s62 + s63 + s65 + s66 + s67 + s70 + s71 + s75 + s76 + s80 + s82 + s83 + s85 + s87 + s91 + s92 + s93 + s94 + s96 + s98 + s99 + s100 + s101 + s103 + s104 + s107 + s108 - c8 >= 0
index_9: s42 + s49 + s53 + s75 + s80 + s83 + s84 - c9 >= 0
index_10: s42 + s49 + s53 + s75 + s80 + s83 + s84 - c10 >= 0
index_11: s91 + s93 + s94 + s96 + s98 + s99 + s100 + s103 + s104 + s107 + s108 - c11 >= 0
index_12: s20 + s22 + s23 + s92 + s94 + s96 + s100 + s103 + s107 - c12 >= 0
index_13: s28 + s32 + s34 + s35 + s42 + s45 + s46 + s48 + s50 + s56 + s74 + s77 + s78 + s80 + s81 + s82 + s87 - c13 >= 0
index_14: s27 + s29 + s60 + s63 - c14 >= 0
index_15: s19 + s20 + s21 + s23 + s92 + s94 + s96 + s100 + s103 + s107 - c15 >= 0
index_16: s32 + s34 + s37 + s89 + s90 + s92 + s101 + s102 + s103 - c16 >= 0
index_17: s36 + s93 + s94 + s104 + s105 - c17 >= 0
index_18: s34 + s90 + s91 + s95 + s98 + s99 + s101 + s103 + s107 + s108 - c18 >= 0
index_19: s1 + s3 + s6 + s7 + s9 + s11 + s16 + s17 + s19 + s38 + s65 + s70 - c19 >= 0
index_20: s46 + s47 + s79 + s94 + s96 + s106 + s107 - c20 >= 0
index_21: s48 + s56 + s80 + s87 + s100 - c21 >= 0
index_22: s33 + s34 + s89 + s90 + s91 + s95 + s96 + s98 + s99 + s100 + s101 + s102 + s103 + s107 + s108 - c22 >= 0
index_23: s22 + s29 + s34 + s55 + s56 + s62 + s86 + s87 + s90 + s93 + s94 + s95 + s99 + s101 + s105 + s106 + s107 - c23 >= 0
index_24: s27 + s29 + s60 + s63 - c24 >= 0
index_25: s34 + s43 + s55 + s75 + s85 + s91 + s93 + s94 + s96 + s97 + s99 + s100 + s102 + s104 + s107 - c25 >= 0
index_26: s32 + s35 + s46 + s50 + s53 + s63 + s67 + s79 + s82 + s83 + s84 + s91 + s103 - c26 >= 0
index_27: s27 + s29 + s60 + s62 - c27 >= 0
index_28: s27 + s29 + s60 + s62 - c28 >= 0
index_29: s36 + s45 + s48 + s69 + s77 + s80 + s97 + s100 + s107 - c29 >= 0
index_30: s48 + s56 + s80 + s87 + s100 - c30 >= 0
index_31: s25 + s50 + s82 - c31 >= 0
index_32: s22 + s25 + s30 + s36 + s50 + s89 + s100 - c32 >= 0
index_33: s25 + s26 + s50 + s51 + s59 + s82 - c33 >= 0
index_34: s58 + s59 - c34 >= 0
index_35: s9 + s10 + s16 + s17 + s66 - c35 >= 0
index_36: s23 + s35 + s89 + s90 + s91 + s93 + s94 + s98 + s101 + s102 + s104 + s105 - c36 >= 0
index_37: s34 + s63 - c37 >= 0
index_38: s16 - c38 >= 0
index_39: s23 + s35 + s66 + s89 + s90 + s91 + s93 + s94 + s98 + s101 + s102 + s104 + s105 - c39 >= 0
index_40: s18 + s38 + s57 + s72 + s91 + s107 - c40 >= 0
index_41: s4 + s6 + s16 + s19 + s21 + s38 + s39 + s54 + s65 + s68 + s71 + s72 + s84 + s93 + s104 - c41 >= 0
index_42: s30 + s37 + s91 + s93 + s94 + s96 + s97 + s99 + s100 + s102 + s104 + s107 + s108 - c42 >= 0
index_43: s22 + s28 + s38 + s56 + s61 + s69 + s87 + s89 + s93 + s94 + s97 + s100 + s105 + s106 + s107 - c43 >= 0
index_44: s20 + s21 + s23 + s30 + s92 + s94 + s96 + s100 + s103 + s107 - c44 >= 0
index_45: s5 + s49 + s81 - c45 >= 0
index_46: s20 + s21 + s93 + s104 - c46 >= 0
index_47: s8 + s9 + s16 + s19 + s20 + s21 + s22 + s26 + s28 + s32 + s33 + s34 + s37 + s38 + s39 + s40 + s41 + s42 + s44 + s48 + s50 + s52 + s53 + s54 + s56 + s57 + s65 + s73 + s75 + s76 + s77 + s80 + s83 + s84 + s88 + s89 + s90 + s100 + s101 - c47 >= 0
index_48: s32 + s35 + s43 + s44 + s53 + s54 + s63 + s68 + s75 + s76 + s83 + s84 + s85 - c48 >= 0
index_49: s9 + s11 + s12 + s19 - c49 >= 0
index_50: s6 + s22 + s23 + s24 + s29 + s57 + s58 + s62 - c50 >= 0
index_51: s26 + s30 + s34 + s35 + s38 + s42 + s43 + s48 + s49 + s63 + s64 + s66 + s69 + s74 + s75 + s78 + s81 + s82 - c51 >= 0
index_52: s2 + s5 + s7 + s14 + s60 - c52 >= 0
index_53: s10 + s26 + s31 + s32 + s35 + s45 + s46 + s52 + s63 + s64 + s77 + s79 + s83 + s89 + s91 + s94 + s101 + s103 + s105 + s106 - c53 >= 0
index_54: s30 + s35 + s92 + s93 + s94 + s96 + s100 + s103 + s104 + s105 + s107 - c54 >= 0
index_55: s19 + s21 + s27 + s34 + s35 + s42 + s75 + s90 + s101 - c55 >= 0
index_56: s9 + s11 + s25 + s26 + s31 + s42 + s49 + s50 + s57 + s78 + s81 + s88 + s90 + s96 + s100 + s103 + s104 + s107 - c56 >= 0
index_57: s34 + s95 + s99 + s101 + s107 - c57 >= 0
index_58: s92 + s93 + s96 + s100 + s103 + s104 + s107 - c58 >= 0
index_59: s19 + s36 + s73 + s82 + s88 + s108 - c59 >= 0
index_60: s91 + s93 + s96 + s100 + s103 + s104 + s107 - c60 >= 0
index_61: s91 + s92 + s94 + s96 + s99 + s100 + s102 + s104 + s107 - c61 >= 0
index_62: s27 + s29 + s60 + s63 - c62 >= 0
index_63: s35 + s36 + s37 + s38 + s39 + s69 + s89 + s91 + s93 + s101 + s103 + s104 - c63 >= 0
index_64: s1 + s3 + s6 + s7 + s9 + s11 + s16 + s17 + s19 + s34 + s38 + s65 + s71 - c64 >= 0
index_65: s1 + s3 + s6 + s17 - c65 >= 0
index_66: s5 + s60 + s61 + s64 + s65 + s66 + s68 + s69 + s70 + s71 + s72 - c66 >= 0
index_67: s42 + s44 + s45 + s48 + s74 + s77 + s78 + s80 - c67 >= 0
index_68: s27 + s30 + s32 + s34 + s35 + s42 + s46 + s50 + s74 + s77 + s78 + s81 + s82 - c68 >= 0
index_69: s34 + s45 + s46 + s49 + s50 + s77 + s78 + s80 + s81 + s82 - c69 >= 0
index_70: s28 + s36 + s43 + s53 + s68 + s75 + s83 + s84 - c70 >= 0
index_71: s27 + s28 + s32 + s34 + s35 + s36 + s41 + s43 + s44 + s45 + s46 + s48 + s50 + s53 + s54 + s73 + s75 + s77 + s78 + s79 + s80 + s82 + s83 + s84 + s85 + s100 - c71 >= 0
index_72: s32 + s46 + s50 + s53 + s54 + s79 + s82 + s83 + s84 + s100 - c72 >= 0
index_73: s4 + s7 + s8 + s9 + s16 + s18 - c73 >= 0
index_74: s25 + s26 + s30 + s50 + s51 + s74 + s82 - c74 >= 0
index_75: s30 + s31 + s32 + s42 + s43 + s45 + s46 + s50 + s53 + s74 + s75 + s77 + s78 + s81 + s82 + s84 - c75 >= 0
index_76: s36 + s39 + s59 + s60 + s69 + s71 + s72 + s89 + s93 + s101 + s104 - c76 >= 0
index_77: s57 + s58 - c77 >= 0
index_78: s7 + s8 + s37 + s47 + s69 + s79 - c78 >= 0
index_79: s22 + s23 + s24 + s25 + s34 - c79 >= 0
index_80: s19 - c80 >= 0
index_81: s33 + s34 + s89 + s90 + s91 + s95 + s97 + s98 + s99 + s100 + s101 + s102 + s103 + s107 + s108 - c81 >= 0
index_82: s32 + s35 + s38 + s63 + s65 + s67 - c82 >= 0
index_83: s36 + s39 + s69 + s71 + s72 + s89 + s93 + s101 + s104 - c83 >= 0
index_84: s47 + s80 + s94 + s96 + s106 + s107 - c84 >= 0
index_85: s47 + s79 + s94 + s95 + s96 + s106 + s107 - c85 >= 0
index_86: s32 + s36 + s46 + s52 + s64 + s79 + s83 - c86 >= 0
index_87: s30 + s39 + s40 + s41 + s63 + s72 + s73 + s83 - c87 >= 0
index_88: s25 + s46 + s49 + s56 + s78 + s81 + s87 - c88 >= 0
index_89: s30 + s42 + s43 + s45 + s63 + s74 + s75 + s77 - c89 >= 0
index_90: s25 + s46 + s49 + s56 + s78 + s81 + s87 - c90 >= 0
index_91: s24 + s33 + s38 + s64 + s69 + s77 - c91 >= 0
index_92: s60 + s61 - c92 >= 0
index_93: s18 + s19 + s20 + s21 - c93 >= 0
index_94: s19 + s37 + s47 + s79 - c94 >= 0
index_95: s20 - c95 >= 0
index_96: s36 + s74 + s77 + s90 + s94 + s96 + s98 + s101 + s106 + s107 - c96 >= 0
index_97: s6 + s22 + s25 + s30 + s36 + s38 + s50 + s63 + s82 + s89 + s100 - c97 >= 0
index_98: s22 + s29 + s34 + s55 + s56 + s62 + s86 + s87 + s90 + s93 + s94 + s95 + s98 + s101 + s105 + s106 + s107 - c98 >= 0
index_99: s47 + s80 + s94 + s96 + s106 + s107 - c99 >= 0
index_100: s22 + s29 + s57 + s62 + s69 - c100 >= 0
index_101: s22 + s29 + s30 + s38 + s57 + s62 + s63 + s69 - c101 >= 0
index_102: s36 + s39 - c102 >= 0
index_103: s25 + s46 + s49 + s56 + s63 + s78 + s81 + s87 - c103 >= 0
index_104: s23 + s25 + s46 + s49 + s55 + s56 + s78 + s81 + s87 + s97 + s100 + s107 - c104 >= 0
index_105: s20 + s21 + s22 + s23 + s30 + s57 + s92 + s94 + s96 + s100 + s103 + s107 - c105 >= 0
index_106: s20 + s22 + s23 + s24 + s30 + s77 + s92 + s94 + s96 + s100 + s103 + s107 - c106 >= 0
index_107: s22 + s29 + s38 + s57 + s62 + s69 - c107 >= 0
index_108: s30 + s33 + s35 + s45 + s52 + s54 + s56 + s67 + s83 + s85 + s88 + s98 - c108 >= 0
index_109: s92 + s94 + s96 + s100 + s103 + s105 + s107 - c109 >= 0
index_110: s42 + s43 + s74 + s75 - c110 >= 0
index_111: s5 + s6 + s22 + s29 + s57 + s62 + s69 - c111 >= 0
index_112: s22 + s29 + s38 + s57 + s62 + s69 - c112 >= 0
index_113: s23 + s33 + s38 + s45 + s77 - c113 >= 0
index_114: s33 + s38 + s64 + s65 + s69 + s70 - c114 >= 0
index_115: s24 + s26 + s83 - c115 >= 0
index_116: s58 - c116 >= 0
index_117: s58 - c117 >= 0
index_118: s18 + s19 + s21 + s39 - c118 >= 0
index_119: s18 + s20 + s41 + s48 + s56 + s73 + s80 + s87 + s100 - c119 >= 0
index_120: s40 + s42 + s43 + s44 + s46 + s73 + s75 + s76 + s79 + s93 + s94 + s104 + s105 - c120 >= 0
index_121: s39 + s45 + s48 + s56 + s72 + s75 + s78 + s80 + s87 + s97 + s100 + s107 - c121 >= 0
index_122: s25 + s26 + s51 + s82 - c122 >= 0
index_123: s26 + s51 + s52 + s82 - c123 >= 0
index_124: s21 + s22 + s28 + s38 + s61 + s69 - c124 >= 0
index_125: s42 + s75 - c125 >= 0
index_126: s2 + s3 - c126 >= 0
index_127: s3 - c127 >= 0
index_128: s31 + s32 + s33 + s34 + s36 + s38 + s39 + s42 + s46 + s53 + s57 + s68 + s69 + s72 + s75 + s79 + s83 + s84 + s88 + s91 + s100 + s102 - c128 >= 0
index_129: s18 + s19 + s20 + s21 - c129 >= 0
index_130: s60 + s64 + s65 + s68 + s71 - c130 >= 0
index_131: s7 + s8 + s16 + s17 - c131 >= 0
index_132: s26 + s45 + s59 + s60 + s62 + s77 - c132 >= 0
index_133: s22 + s27 + s29 + s32 + s33 + s34 + s36 + s38 + s39 + s48 + s80 + s89 + s91 + s94 + s100 + s102 + s103 + s105 - c133 >= 0
index_134: s10 + s20 + s30 - c134 >= 0
index_135: s6 + s7 + s8 + s9 + s16 + s17 - c135 >= 0
index_136: s67 + s68 - c136 >= 0
index_137: s7 - c137 >= 0
index_138: s6 + s8 + s9 - c138 >= 0
index_139: s30 + s33 + s34 + s36 + s39 + s48 + s66 + s72 + s80 + s89 + s90 + s91 + s95 + s97 + s98 + s99 + s100 + s101 + s102 + s103 + s107 + s108 - c139 >= 0
index_140: s92 + s94 + s96 + s100 + s103 + s105 + s107 - c140 >= 0
index_141: s41 + s45 + s48 + s73 + s77 + s78 + s80 - c141 >= 0
index_142: s10 + s11 + s18 + s19 - c142 >= 0
index_143: s18 + s19 + s21 - c143 >= 0
index_144: s30 + s44 + s50 + s54 + s81 + s82 + s83 + s84 + s85 - c144 >= 0
index_145: s36 + s39 + s45 + s48 + s69 + s72 + s77 + s80 + s97 + s100 + s107 - c145 >= 0
index_146: s46 + s79 - c146 >= 0
index_147: s43 + s44 + s50 + s75 + s76 + s84 - c147 >= 0
index_148: s8 + s10 + s15 + s16 - c148 >= 0
index_149: s8 + s11 + s15 + s16 - c149 >= 0
index_150: s26 + s32 + s33 + s35 + s37 + s38 + s39 + s45 + s77 + s89 + s92 + s93 + s94 + s101 + s103 + s104 + s105 - c150 >= 0
index_151: s22 + s30 + s39 + s40 + s41 + s43 + s44 + s47 + s63 + s72 + s73 + s75 + s76 + s80 - c151 >= 0
index_152: s8 + s9 - c152 >= 0
index_153: s9 - c153 >= 0
index_154: s9 + s15 + s16 - c154 >= 0
index_155: s9 + s11 + s12 - c155 >= 0
index_156: s26 + s27 + s28 + s30 + s32 + s33 + s34 + s35 + s36 + s37 + s38 + s39 + s40 + s42 + s44 + s45 + s46 + s47 + s49 + s52 + s53 + s54 + s57 + s72 + s73 + s75 + s76 + s78 + s79 + s80 + s83 + s84 + s85 + s88 + s89 + s91 + s101 + s102 - c156 >= 0
index_157: s9 - c157 >= 0
index_158: s10 + s11 - c158 >= 0
index_159: s11 + s12 - c159 >= 0
index_160: s65 + s68 - c160 >= 0
index_161: s33 + s36 + s68 + s69 + s72 - c161 >= 0
index_162: s33 + s63 + s64 + s67 + s68 + s69 + s70 + s71 + s72 - c162 >= 0
index_163: s34 + s66 + s67 + s68 - c163 >= 0
index_164: s46 + s56 + s79 + s88 + s90 + s91 + s93 + s95 + s98 + s102 + s103 + s104 + s107 + s108 - c164 >= 0
index_165: s0 + s2 + s3 - c165 >= 0
index_166: s3 - c166 >= 0
index_167: s0 - c167 >= 0
index_168: s22 + s32 + s34 + s35 + s45 + s47 + s54 + s66 + s78 + s80 + s85 + s89 + s91 + s92 + s94 + s98 + s101 + s102 + s103 + s105 - c168 >= 0
index_169: s35 + s41 + s42 + s49 + s53 + s73 + s75 + s80 + s83 + s84 - c169 >= 0
index_170: s0 + s1 + s2 - c170 >= 0
index_171: s0 + s1 + s2 - c171 >= 0
index_172: s4 + s6 + s17 - c172 >= 0
index_173: s34 + s37 + s42 + s46 + s54 + s75 + s79 + s84 + s89 + s90 + s91 + s92 + s93 + s94 + s101 + s102 + s103 + s104 - c173 >= 0
index_174: s10 + s11 - c174 >= 0
index_175: s0 + s6 + s8 + s14 + s15 + s16 + s17 + s22 + s43 + s49 + s76 + s81 + s93 + s100 + s105 - c175 >= 0
index_176: s36 + s38 + s39 + s68 + s71 - c176 >= 0
index_177: s3 + s4 + s5 + s17 - c177 >= 0
index_178: s56 + s87 + s94 + s100 + s104 + s105 - c178 >= 0
index_179: s8 + s11 + s14 + s15 + s39 + s93 + s94 + s96 + s104 + s106 + s107 - c179 >= 0
index_180: s17 - c180 >= 0
index_181: s36 + s38 + s39 + s65 + s68 + s69 + s71 - c181 >= 0
index_182: s3 + s4 + s6 + s16 - c182 >= 0
index_183: s63 + s71 - c183 >= 0
index_184: s36 + s39 + s65 + s68 + s69 + s72 - c184 >= 0
index_185: s36 + s39 + s68 + s69 + s72 - c185 >= 0
index_186: s15 - c186 >= 0
index_187: s89 + s91 + s93 + s94 + s98 + s102 + s105 + s106 - c187 >= 0
index_188: s21 + s22 + s93 + s104 - c188 >= 0
index_189: s13 - c189 >= 0
index_190: s10 + s14 - c190 >= 0
index_191: s11 + s13 + s14 + s15 + s16 - c191 >= 0
index_192: s17 + s22 + s29 + s62 + s90 + s102 + s107 - c192 >= 0
index_193: s65 + s68 - c193 >= 0
index_194: s93 + s95 + s98 + s104 + s107 - c194 >= 0
index_195: s30 + s37 + s39 + s43 + s45 + s49 + s50 + s52 + s69 + s71 + s72 + s75 + s81 + s82 + s83 - c195 >= 0
index_196: s3 + s11 + s43 + s76 + s93 + s104 - c196 >= 0
index_197: s20 + s21 - c197 >= 0
index_198: s32 + s33 + s37 + s38 + s64 + s65 + s69 + s70 - c198 >= 0
index_199: s32 + s33 + s37 + s38 + s64 + s65 + s69 + s70 - c199 >= 0
index_200: s5 + s29 + s61 - c200 >= 0
index_201: s26 + s32 + s64 + s68 + s70 + s71 - c201 >= 0
index_202: s91 + s93 + s94 + s95 + s98 + s103 + s104 + s106 + s107 - c202 >= 0
index_203: s27 + s28 + s32 + s33 + s38 + s40 + s41 + s44 + s50 + s63 + s64 + s69 + s73 + s76 + s81 - c203 >= 0
index_204: s32 + s38 + s52 + s64 + s70 - c204 >= 0
index_205: s32 + s34 + s38 + s41 + s42 + s43 + s44 + s45 + s53 + s57 + s64 + s65 + s68 + s70 + s73 + s75 + s76 + s77 + s83 + s89 + s100 - c205 >= 0
index_206: s8 + s14 + s15 + s16 + s46 + s79 + s90 + s93 + s94 + s96 + s100 + s102 + s104 + s106 + s107 - c206 >= 0
index_207: s28 + s35 + s45 + s56 + s66 + s77 + s78 + s87 + s89 + s94 + s98 + s101 + s102 + s105 - c207 >= 0
index_208: s28 + s33 + s35 + s38 + s39 + s40 + s41 + s42 + s47 + s49 + s61 + s69 + s71 + s73 + s75 + s80 + s81 - c208 >= 0
index_209: s92 + s94 + s96 + s100 + s103 - c209 >= 0
index_210: s5 + s49 + s62 + s81 + s89 + s91 + s94 + s101 + s105 - c210 >= 0
index_211: s8 + s9 + s20 - c211 >= 0
index_212: s33 + s37 + s47 + s54 + s56 + s57 + s80 + s84 + s85 + s88 + s89 + s93 + s104 - c212 >= 0
index_213: s47 + s54 + s57 + s80 + s85 + s88 + s98 - c213 >= 0
index_214: s95 + s98 + s107 - c214 >= 0
index_215: s10 + s94 - c215 >= 0
index_216: s89 + s91 + s94 + s98 + s101 + s102 + s106 - c216 >= 0
index_217: s19 + s21 + s98 - c217 >= 0
index_218: s8 + s9 + s16 - c218 >= 0
index_219: s26 + s32 + s35 + s36 + s38 + s39 + s40 + s44 + s46 + s52 + s63 + s64 + s69 + s70 + s71 + s72 + s73 + s79 + s83 - c219 >= 0
index_220: s39 + s40 + s70 + s72 + s76 - c220 >= 0
index_221: s14 + s16 + s20 + s21 + s22 - c221 >= 0
index_222: s20 - c222 >= 0
index_223: s8 + s9 - c223 >= 0
index_224: s6 + s7 + s8 + s9 + s11 + s16 + s17 - c224 >= 0
length: s0 + s1 + s2 + s3 + s4 + s5 + s6 + s7 + s8 + s9 + s10 + s11 + s12 + s13 + s14 + s15 + s16 + s17 + s18 + s19 + s20 + s21 + s22 + s23 + s24 + s25 + s26 + s27 + s28 + s29 + s30 + s31 + s32 + s33 + s34 + s35 + s36 + s37 + s38 + s39 + s40 + s41 + s42 + s43 + s44 + s45 + s46 + s47 + s48 + s49 + s50 + s51 + s52 + s53 + s54 + s55 + s56 + s57 + s58 + s59 + s60 + s61 + s62 + s63 + s64 + s65 + s66 + s67 + s68 + s69 + s70 + s71 + s72 + s73 + s74 + s75 + s76 + s77 + s78 + s79 + s80 + s81 + s82 + s83 + s84 + s85 + s86 + s87 + s88 + s89 + s90 + s91 + s92 + s93 + s94 + s95 + s96 + s97 + s98 + s99 + s100 + s101 + s102 + s103 + s104 + s105 + s106 + s107 + s108 <= 7



Binary
c0
c1
c2
c3
c4
c5
c6
c7
c8
c9
c10
c11
c12
c13
c14
c15
c16
c17
c18
c19
c20
c21
c22
c23
c24
c25
c26
c27
c28
c29
c30
c31
c32
c33
c34
c35
c36
c37
c38
c39
c40
c41
c42
c43
c44
c45
c46
c47
c48
c49
c50
c51
c52
c53
c54
c55
c56
c57
c58
c59
c60
c61
c62
c63
c64
c65
c66
c67
c68
c69
c70
c71
c72
c73
c74
c75
c76
c77
c78
c79
c80
c81
c82
c83
c84
c85
c86
c87
c88
c89
c90
c91
c92
c93
c94
c95
c96
c97
c98
c99
c100
c101
c102
c103
c104
c105
c106
c107
c108
c109
c110
c111
c112
c113
c114
c115
c116
c117
c118
c119
c120
c121
c122
c123
c124
c125
c126
c127
c128
c129
c130
c131
c132
c133
c134
c135
c136
c137
c138
c139
c140
c141
c142
c143
c144
c145
c146
c147
c148
c149
c150
c151
c152
c153
c154
c155
c156
c157
c158
c159
c160
c161
c162
c163
c164
c165
c166
c167
c168
c169
c170
c171
c172
c173
c174
c175
c176
c177
c178
c179
c180
c181
c182
c183
c184
c185
c186
c187
c188
c189
c190
c191
c192
c193
c194
c195
c196
c197
c198
c199
c200
c201
c202
c203
c204
c205
c206
c207
c208
c209
c210
c211
c212
c213
c214
c215
c216
c217
c218
c219
c220
c221
c222
c223
c224
c225
c226
c227
c228
c229
c230
c231
c232
c233
c234
c235
c236
c237
c238
s0
s1
s2
s3
s4
s5
s6
s7
s8
s9
s10
s11
s12
s13
s14
s15
s16
s17
s18
s19
s20
s21
s22
s23
s24
s25
s26
s27
s28
s29
s30
s31
s32
s33
s34
s35
s36
s37
s38
s39
s40
s41
s42
s43
s44
s45
s46
s47
s48
s49
s50
s51
s52
s53
s54
s55
s56
s57
s58
s59
s60
s61
s62
s63
s64
s65
s66
s67
s68
s69
s70
s71
s72
s73
s74
s75
s76
s77
s78
s79
s80
s81
s82
s83
s84
s85
s86
s87
s88
s89
s90
s91
s92
s93
s94
s95
s96
s97
s98
s99
s100
s101
s102
s103
s104
s105
s106
s107
s108
End